424 5
10 10 10 10 10 

0 0 0 0 0 0 5 2 14 26 38 50 
0 0 0 0 0 0 2 3 5 
2 0 0 1 0 0 3 7 6 4 
5 0 0 3 0 0 2 9 8 
8 0 0 1 0 0 2 12 7 
9 0 0 4 0 0 2 12 10 
5 0 0 2 0 0 1 9 
2 0 0 3 0 0 3 12 11 215 
5 0 0 1 0 0 1 10 
1 0 0 2 0 0 1 11 
1 0 0 3 0 0 1 13 
7 0 0 5 0 0 1 13 
0 0 0 0 0 0 1 62 
0 0 0 0 0 0 3 15 18 331 
1 1 0 0 0 0 3 20 17 16 
9 1 0 0 0 0 2 21 19 
1 1 0 0 0 0 2 22 21 
2 1 0 0 0 0 2 22 21 
6 4 0 0 0 0 2 24 22 
8 2 0 0 0 0 2 24 22 
4 3 0 0 0 0 2 24 23 
4 4 0 0 0 0 1 23 
3 4 0 0 0 0 1 25 
4 4 0 0 0 0 1 25 
0 0 0 0 0 0 1 62 
0 0 0 0 0 0 3 27 29 369 
7 1 0 0 0 0 3 36 35 28 
2 1 0 0 0 0 3 34 33 30 
8 3 0 0 0 0 2 33 32 
1 4 0 0 0 0 1 31 
10 1 0 0 0 0 1 32 
2 3 0 0 0 0 1 37 
1 2 0 0 0 0 1 37 
4 3 0 0 0 0 1 37 
10 1 0 0 0 0 1 37 
1 6 0 0 0 0 1 37 
0 0 0 0 0 0 1 62 
0 0 0 0 0 0 4 39 41 42 48 
7 0 0 0 0 1 2 43 40 
9 0 0 0 0 4 3 47 44 402 
9 0 0 0 0 2 2 47 45 
4 0 0 0 0 1 2 47 45 
10 0 0 0 0 4 2 47 46 
9 0 0 0 0 3 1 45 
5 0 0 0 0 3 1 46 
4 0 0 0 0 4 1 49 
6 0 0 0 0 1 1 49 
8 0 0 0 0 2 1 49 
0 0 0 0 0 0 1 62 
0 0 0 0 0 0 2 51 53 
5 0 0 0 0 1 2 54 52 
7 0 0 0 0 1 3 60 56 55 
10 0 0 0 0 5 2 60 54 
5 0 0 0 0 2 2 59 56 
6 0 0 0 0 4 2 59 57 
4 0 0 0 0 2 2 57 72 
2 0 0 0 0 2 1 58 
6 0 0 0 0 5 1 61 
6 0 0 0 0 1 1 61 
10 0 0 0 0 2 1 61 
0 0 0 0 0 0 1 62 
0 0 0 0 0 0 5 63 75 87 99 111 
0 0 0 0 0 0 3 64 65 69 
6 0 1 0 0 0 2 68 67 
10 0 4 0 0 0 1 66 
10 0 1 0 0 0 2 71 68 
6 0 7 0 0 0 2 71 70 
8 0 2 0 0 0 3 73 70 417 
3 0 2 0 0 0 1 70 
7 0 1 0 0 0 1 72 
1 0 2 0 0 0 1 73 
1 0 1 0 0 0 1 74 
8 0 4 0 0 0 1 74 
0 0 0 0 0 0 1 123 
0 0 0 0 0 0 2 76 78 
2 0 0 0 1 0 2 81 77 
8 0 0 0 4 0 2 84 79 
2 0 0 0 2 0 2 85 81 
8 0 0 0 2 0 1 80 
5 0 0 0 2 0 3 83 82 112 
9 0 0 0 1 0 2 83 82 
7 0 0 0 4 0 1 86 
8 0 0 0 1 0 1 86 
8 0 0 0 5 0 1 86 
8 0 0 0 3 0 1 86 
0 0 0 0 0 0 1 123 
0 0 0 0 0 0 1 88 
2 0 1 0 0 0 3 91 90 89 
3 0 4 0 0 0 5 97 96 94 92 218 
1 0 4 0 0 0 2 96 92 
2 0 2 0 0 0 1 92 
8 0 3 0 0 0 1 93 
1 0 1 0 0 0 1 95 
3 0 3 0 0 0 1 95 
4 0 2 0 0 0 1 98 
9 0 2 0 0 0 1 98 
1 0 3 0 0 0 1 98 
0 0 0 0 0 0 1 123 
0 0 0 0 0 0 6 100 104 106 107 108 109 
8 0 0 1 0 0 1 101 
5 0 0 2 0 0 1 102 
9 0 0 3 0 0 2 103 214 
10 0 0 1 0 0 1 105 
9 0 0 4 0 0 1 105 
3 0 0 3 0 0 1 110 
9 0 0 2 0 0 1 110 
4 0 0 3 0 0 1 110 
9 0 0 2 0 0 1 110 
10 0 0 4 0 0 1 110 
0 0 0 0 0 0 1 123 
0 0 0 0 0 0 5 112 113 114 118 374 
4 0 0 1 0 0 2 117 116 
2 0 0 3 0 0 1 115 
3 0 0 7 0 0 1 115 
6 0 0 3 0 0 1 116 
5 0 0 1 0 0 2 121 119 
10 0 0 2 0 0 2 121 119 
3 0 0 3 0 0 1 119 
3 0 0 1 0 0 1 120 
5 0 0 3 0 0 1 122 
7 0 0 1 0 0 1 122 
0 0 0 0 0 0 1 123 
0 0 0 0 0 0 5 124 156 168 200 232 
0 0 0 0 0 0 3 125 126 128 
1 1 1 0 0 1 2 131 127 
7 1 3 0 0 2 2 131 127 
4 1 4 0 0 3 3 132 129 212 
3 6 4 0 0 2 2 132 131 
4 2 2 0 0 4 1 130 
10 1 2 0 0 5 2 134 133 
6 3 2 0 0 3 2 134 133 
9 5 4 0 0 3 2 136 134 
9 1 2 0 0 1 2 136 135 
6 4 4 0 0 3 1 135 
2 2 2 0 0 5 2 139 137 
8 1 1 0 0 4 1 137 
10 2 1 0 0 2 2 142 138 
6 3 2 0 0 3 2 141 140 
8 2 2 0 0 2 2 146 142 
6 4 4 0 0 1 2 146 143 
9 1 1 0 0 4 2 146 143 
3 5 3 0 0 1 1 143 
5 1 3 0 0 1 1 144 
4 2 3 0 0 2 1 145 
4 1 3 0 0 2 2 150 147 
3 4 3 0 0 2 1 147 
7 2 2 0 0 3 4 154 153 149 148 
5 2 3 0 0 1 1 152 
6 3 3 0 0 2 1 151 
4 5 2 0 0 2 1 151 
10 4 1 0 0 1 1 155 
8 1 4 0 0 5 1 155 
6 2 1 0 0 2 1 155 
5 3 3 0 0 3 1 155 
0 0 0 0 0 0 1 424 
0 0 0 0 0 0 4 157 158 159 160 
4 0 0 1 0 0 2 162 161 
8 0 0 2 0 0 2 162 161 
1 0 0 2 0 0 2 162 161 
6 0 0 2 0 0 2 162 161 
10 0 0 2 0 0 2 163 354 
6 0 0 5 0 0 1 163 
8 0 0 1 0 0 2 165 164 
7 0 0 5 0 0 1 166 
7 0 0 2 0 0 1 166 
4 0 0 3 0 0 1 167 
0 0 0 0 0 0 5 264 286 308 320 342 
0 0 0 0 0 0 3 169 170 198 
4 1 0 1 1 0 2 197 171 
4 3 0 3 1 0 2 197 171 
3 3 0 1 3 0 2 175 172 
2 1 0 3 7 0 2 179 173 
6 1 0 3 2 0 2 196 174 
5 3 0 2 6 0 2 187 176 
8 3 0 5 3 0 3 182 179 177 
7 2 0 2 4 0 2 182 177 
8 2 0 2 2 0 2 190 178 
8 1 0 2 1 0 2 186 180 
5 3 0 2 2 0 2 190 180 
3 2 0 1 3 0 1 181 
2 4 0 4 3 0 2 195 183 
10 1 0 2 1 0 4 195 194 189 185 
5 3 0 4 1 0 1 184 
10 5 0 1 3 0 3 194 189 185 
9 6 0 2 2 0 3 193 192 188 
2 3 0 3 2 0 1 188 
5 5 0 4 2 0 1 188 
10 3 0 2 4 0 1 191 
6 3 0 1 3 0 1 192 
8 2 0 3 2 0 1 195 
4 2 0 4 1 0 1 199 
7 2 0 2 3 0 1 199 
10 2 0 2 2 0 1 199 
2 3 0 3 2 0 1 199 
4 2 0 2 2 0 1 199 
8 1 0 3 1 0 1 199 
1 2 0 4 2 0 1 199 
2 1 0 2 4 0 1 199 
0 0 0 0 0 0 1 424 
0 0 0 0 0 0 3 201 209 230 
9 1 1 0 1 0 2 229 202 
6 3 1 0 4 0 2 227 203 
5 3 1 0 2 0 1 204 
3 4 2 0 1 0 3 226 224 205 
4 2 1 0 4 0 2 225 206 
2 1 1 0 3 0 3 223 222 207 
2 4 3 0 1 0 1 208 
5 1 4 0 2 0 2 221 210 
10 3 2 0 3 0 5 228 224 222 220 213 
10 2 3 0 2 0 1 211 
10 1 1 0 2 0 1 212 
3 1 6 0 3 0 2 220 213 
2 2 3 0 1 0 4 219 218 217 214 
6 4 4 0 2 0 1 215 
4 2 4 0 2 0 1 216 
10 2 4 0 3 0 1 231 
8 2 2 0 1 0 1 231 
9 4 3 0 3 0 1 231 
7 6 3 0 2 0 1 231 
7 2 1 0 3 0 1 231 
3 2 1 0 1 0 1 231 
9 3 3 0 6 0 1 231 
2 2 3 0 4 0 1 231 
1 2 3 0 2 0 1 231 
2 3 3 0 3 0 1 231 
4 5 2 0 1 0 1 231 
7 3 3 0 4 0 1 231 
10 1 3 0 4 0 1 231 
4 2 1 0 3 0 1 231 
10 2 3 0 2 0 1 231 
0 0 0 0 0 0 1 424 
0 0 0 0 0 0 3 233 245 262 
2 0 1 1 0 1 2 261 234 
1 0 4 2 0 1 2 259 235 
1 0 1 2 0 3 1 236 
8 0 3 2 0 3 3 258 256 237 
10 0 2 2 0 5 2 257 238 
3 0 3 4 0 2 3 255 254 239 
2 0 4 4 0 3 1 240 
3 0 1 2 0 2 2 253 241 
4 0 5 3 0 2 1 242 
8 0 3 4 0 3 1 243 
7 0 2 2 0 1 2 252 244 
4 0 1 2 0 1 4 251 250 249 246 
5 0 3 3 0 3 4 260 256 254 246 
2 0 3 3 0 2 1 247 
9 0 3 4 0 3 1 248 
8 0 1 1 0 3 1 263 
2 0 6 4 0 3 1 263 
2 0 2 2 0 2 1 263 
4 0 2 1 0 3 1 263 
3 0 1 1 0 5 1 263 
2 0 2 1 0 2 1 263 
4 0 1 4 0 2 1 263 
9 0 4 3 0 2 1 263 
5 0 5 2 0 3 1 263 
9 0 4 2 0 2 1 263 
10 0 2 1 0 1 1 263 
7 0 1 3 0 3 1 263 
1 0 1 2 0 2 1 263 
5 0 2 2 0 6 1 263 
6 0 2 6 0 1 1 263 
0 0 0 0 0 0 1 424 
0 0 0 0 0 0 2 265 267 
5 0 0 0 1 1 2 270 266 
1 0 0 0 2 2 1 268 
3 0 0 0 4 3 1 268 
9 0 0 0 3 3 3 274 272 269 
3 0 0 0 2 2 3 280 275 271 
4 0 0 0 4 4 3 276 274 273 
8 0 0 0 1 1 2 283 273 
3 0 0 0 1 3 2 280 276 
10 0 0 0 3 2 2 282 277 
6 0 0 0 2 1 2 283 278 
9 0 0 0 4 2 2 282 278 
10 0 0 0 3 4 3 284 282 281 
3 0 0 0 2 3 1 278 
2 0 0 0 3 2 1 279 
9 0 0 0 3 2 1 281 
9 0 0 0 2 3 1 283 
9 0 0 0 4 4 1 285 
9 0 0 0 2 3 1 285 
1 0 0 0 2 4 1 285 
4 0 0 0 2 1 1 285 
0 0 0 0 0 0 1 424 
0 0 0 0 0 0 2 287 288 
8 1 0 0 1 0 4 295 293 292 291 
4 4 0 0 2 0 3 294 292 289 
9 2 0 0 2 0 1 290 
9 1 0 0 2 0 3 300 297 295 
5 2 0 0 3 0 3 297 296 294 
9 3 0 0 2 0 2 300 296 
6 2 0 0 3 0 2 297 296 
2 2 0 0 2 0 3 300 299 298 
7 7 0 0 3 0 1 296 
5 1 0 0 2 0 2 299 298 
8 2 0 0 1 0 1 298 
7 2 0 0 3 0 1 301 
8 4 0 0 3 0 1 301 
6 3 0 0 4 0 1 301 
4 2 0 0 3 0 2 304 302 
1 4 0 0 4 0 2 305 303 
5 2 0 0 2 0 1 306 
8 3 0 0 3 0 1 305 
10 2 0 0 4 0 1 307 
10 1 0 0 1 0 1 307 
0 0 0 0 0 0 1 424 
0 0 0 0 0 0 3 309 311 313 
4 1 0 0 0 0 2 312 310 
8 5 0 0 0 0 2 315 314 
10 4 0 0 0 0 1 312 
2 2 0 0 0 0 1 314 
5 1 0 0 0 0 1 314 
5 5 0 0 0 0 2 318 316 
7 1 0 0 0 0 2 318 316 
1 3 0 0 0 0 1 317 
7 2 0 0 0 0 1 319 
8 1 0 0 0 0 1 319 
0 0 0 0 0 0 5 364 376 388 400 412 
0 0 0 0 0 0 8 321 334 335 336 337 338 339 340 
9 1 1 0 0 0 3 333 332 322 
7 2 3 0 0 0 2 331 323 
1 3 4 0 0 0 1 324 
6 3 1 0 0 0 1 325 
1 3 1 0 0 0 1 326 
5 2 2 0 0 0 1 327 
6 3 3 0 0 0 1 328 
8 2 2 0 0 0 1 329 
1 5 3 0 0 0 1 330 
7 4 5 0 0 0 1 341 
2 2 2 0 0 0 1 341 
5 4 2 0 0 0 1 341 
8 1 4 0 0 0 1 341 
10 4 3 0 0 0 1 341 
5 2 3 0 0 0 1 341 
6 1 2 0 0 0 1 341 
2 1 3 0 0 0 1 341 
1 3 1 0 0 0 1 341 
10 2 2 0 0 0 1 341 
8 2 3 0 0 0 1 341 
0 0 0 0 0 0 1 424 
0 0 0 0 0 0 2 343 345 
7 0 0 1 1 0 2 347 344 
6 0 0 4 4 0 1 346 
6 0 0 1 2 0 1 346 
9 0 0 3 2 0 2 349 348 
2 0 0 3 2 0 3 355 350 349 
9 0 0 4 2 0 4 355 354 351 350 
1 0 0 2 1 0 3 354 353 351 
10 0 0 2 1 0 2 353 352 
2 0 0 1 4 0 3 362 361 356 
2 0 0 2 2 0 3 362 361 356 
4 0 0 2 3 0 2 361 356 
3 0 0 3 1 0 2 361 356 
9 0 0 5 1 0 2 361 356 
1 0 0 1 2 0 1 357 
4 0 0 2 4 0 2 360 358 
6 0 0 4 8 0 1 359 
6 0 0 4 2 0 1 363 
2 0 0 3 2 0 1 363 
1 0 0 1 3 0 1 363 
5 0 0 2 3 0 1 363 
0 0 0 0 0 0 1 424 
0 0 0 0 0 0 2 365 367 
4 1 0 0 0 0 2 371 366 
8 4 0 0 0 0 3 374 370 368 
4 1 0 0 0 0 3 374 370 368 
9 3 0 0 0 0 1 369 
9 2 0 0 0 0 1 372 
5 3 0 0 0 0 1 373 
7 2 0 0 0 0 1 372 
3 2 0 0 0 0 1 375 
3 3 0 0 0 0 1 375 
3 4 0 0 0 0 1 375 
0 0 0 0 0 0 1 424 
0 0 0 0 0 0 2 377 378 
7 0 0 0 1 0 4 383 382 381 380 
3 0 0 0 1 0 1 379 
4 0 0 0 1 0 1 380 
5 0 0 0 2 0 2 386 384 
7 0 0 0 2 0 2 386 384 
4 0 0 0 3 0 2 386 384 
7 0 0 0 2 0 1 384 
6 0 0 0 3 0 1 385 
9 0 0 0 8 0 1 387 
2 0 0 0 2 0 1 387 
0 0 0 0 0 0 1 424 
0 0 0 0 0 0 3 389 390 392 
4 0 1 0 0 0 2 393 391 
5 0 4 0 0 0 2 393 391 
1 0 4 0 0 0 2 395 394 
8 0 2 0 0 0 2 395 394 
3 0 2 0 0 0 1 394 
5 0 4 0 0 0 2 397 396 
9 0 2 0 0 0 2 397 396 
8 0 2 0 0 0 1 398 
9 0 2 0 0 0 1 398 
7 0 2 0 0 0 1 399 
0 0 0 0 0 0 1 424 
0 0 0 0 0 0 2 401 403 
6 0 1 0 0 0 2 410 402 
6 0 4 0 0 0 3 409 406 404 
3 0 3 0 0 0 3 409 408 404 
4 0 2 0 0 0 1 405 
2 0 3 0 0 0 1 407 
10 0 2 0 0 0 1 408 
10 0 1 0 0 0 1 411 
1 0 3 0 0 0 1 411 
6 0 4 0 0 0 1 411 
2 0 2 0 0 0 1 411 
0 0 0 0 0 0 1 424 
0 0 0 0 0 0 1 413 
9 0 0 1 0 0 2 417 414 
8 0 0 2 0 0 3 419 416 415 
3 0 0 1 0 0 2 420 418 
9 0 0 2 0 0 2 420 418 
2 0 0 2 0 0 2 422 419 
3 0 0 2 0 0 2 422 421 
3 0 0 5 0 0 1 420 
4 0 0 3 0 0 1 421 
3 0 0 3 0 0 1 423 
2 0 0 4 0 0 1 423 
0 0 0 0 0 0 1 424 
0 0 0 0 0 0 0 
